<number of tasks>
70

<cycle time>
160

<task times>
1 17
2 66
3 54
4 52
5 6
6 88
7 21
8 128
9 68
10 70
11 85
12 21
13 134
14 135
15 94
16 90
17 50
18 143
19 19
20 54
21 50
22 40
23 73
24 12
25 152
26 42
27 45
28 74
29 26
30 11
31 31
32 50
33 102
34 46
35 35
36 40
37 2
38 1
39 3
40 13
41 16
42 25
43 21
44 43
45 30
46 83
47 89
48 56
49 59
50 43
51 11
52 26
53 44
54 121
55 38
56 68
57 22
58 7
59 16
60 32
61 25
62 27
63 156
64 28
65 15
66 26
67 18
68 72
69 23
70 27

<precedence relations>
1,2
1,41
1,69
1,70
2,3
3,4
3,68
4,6
4,7
5,6
5,24
5,30
6,8
7,8
8,12
9,10
10,11
11,12
12,13
12,14
13,23
14,23
15,16
16,17
16,18
17,19
18,19
19,20
19,22
19,57
20,21
21,23
22,23
23,25
23,31
23,33
24,25
25,26
25,27
25,28
25,29
26,35
27,35
28,35
29,35
30,31
31,32
32,35
33,34
34,35
35,36
35,44
35,48
35,51
35,53
35,56
35,60
35,61
35,62
36,37
37,38
38,39
39,40
40,42
41,42
42,43
43,50
44,45
45,46
46,47
47,50
48,49
49,50
51,52
52,54
53,54
54,55
57,58
58,59
59,60
61,65
62,63
63,64
64,65
64,66
64,67

<setup times forward>
1,9:8
1,10:5
1,11:1
1,15:20
1,16:8
1,17:5
1,18:18
1,19:11
1,20:23
1,21:23
1,22:23
1,30:20
1,41:5
1,57:8
1,58:23
1,59:13
1,69:1
1,70:11
2,9:8
2,10:5
2,11:1
2,15:20
2,16:8
2,17:5
2,18:18
2,19:11
2,20:23
2,21:23
2,22:23
2,30:20
2,41:5
2,57:8
2,58:23
2,59:13
2,69:1
2,70:11
3,4:20
3,9:8
3,10:5
3,11:1
3,15:20
3,16:8
3,17:5
3,18:18
3,19:11
3,20:23
3,21:23
3,22:23
3,30:20
3,41:5
3,57:8
3,58:23
3,59:13
3,68:7
3,69:1
3,70:11
4,5:20
4,6:13
4,7:15
4,9:28
4,10:15
4,11:21
4,16:28
4,17:15
4,18:38
4,19:9
4,20:43
4,21:43
4,22:43
4,24:20
4,41:15
4,57:28
4,58:43
4,59:7
4,68:13
4,69:21
4,70:31
5,4:20
5,6:7
5,7:5
5,9:8
5,10:5
5,11:1
5,15:20
5,16:8
5,17:5
5,18:18
5,19:11
5,20:23
5,21:23
5,22:23
5,30:20
5,41:5
5,57:8
5,58:23
5,59:13
5,68:7
5,69:1
5,70:11
6,7:2
6,8:18
6,9:15
6,10:2
6,11:8
6,15:13
6,16:15
6,17:2
6,18:25
6,19:4
6,20:30
6,21:30
6,22:30
6,24:7
6,30:13
6,41:2
6,57:15
6,58:30
6,59:6
6,69:8
6,70:18
7,5:5
7,6:2
7,8:16
7,9:13
7,11:6
7,15:15
7,16:13
7,18:23
7,19:6
7,20:28
7,21:28
7,22:28
7,24:5
7,30:15
7,57:13
7,58:28
7,59:8
7,68:2
7,69:6
7,70:16
8,9:3
8,10:16
8,11:10
8,12:10
8,15:31
8,16:3
8,17:16
8,18:7
8,19:22
8,20:12
8,21:12
8,22:12
8,24:11
8,30:31
8,41:16
8,57:3
8,58:12
8,59:24
8,68:18
8,69:10
9,1:8
9,2:8
9,3:8
9,4:28
9,5:8
9,6:15
9,7:13
9,8:3
9,10:13
9,15:28
9,17:13
9,18:10
9,19:19
9,20:15
9,21:15
9,22:15
9,24:8
9,30:28
9,41:13
9,58:15
9,59:21
9,68:15
9,69:7
9,70:3
10,1:5
10,2:5
10,3:5
10,4:15
10,5:5
10,6:2
10,8:16
10,11:6
10,15:15
10,16:13
10,18:23
10,19:6
10,20:28
10,21:28
10,22:28
10,24:5
10,30:15
10,57:13
10,58:28
10,59:8
10,68:2
10,69:6
10,70:16
11,1:1
11,2:1
11,3:1
11,4:21
11,5:1
11,6:8
11,7:6
11,8:10
11,15:21
11,16:7
11,17:6
11,18:17
11,19:12
11,20:22
11,21:22
11,22:22
11,24:1
11,30:21
11,41:6
11,57:7
11,58:22
11,59:14
11,68:8
11,70:10
12,13:7
12,14:12
12,15:21
12,16:7
12,17:6
12,18:17
12,19:12
12,20:22
12,21:22
12,22:22
12,24:1
12,30:21
12,41:6
12,57:7
12,58:22
12,59:14
12,68:8
12,70:10
13,14:19
13,15:28
13,17:13
13,18:10
13,19:19
13,20:15
13,21:15
13,22:15
13,23:5
13,24:8
13,30:28
13,41:13
13,58:15
13,59:21
13,68:15
13,69:7
13,70:3
14,13:19
14,15:9
14,16:19
14,17:6
14,18:29
14,20:34
14,21:34
14,22:34
14,23:14
14,24:11
14,30:9
14,41:6
14,57:19
14,58:34
14,59:2
14,68:4
14,69:12
14,70:22
15,1:20
15,2:20
15,3:20
15,5:20
15,6:13
15,7:15
15,8:31
15,9:28
15,10:15
15,11:21
15,12:21
15,13:28
15,14:9
15,16:28
15,24:20
15,41:15
15,68:13
15,69:21
15,70:31
16,1:8
16,2:8
16,3:8
16,4:28
16,5:8
16,6:15
16,7:13
16,8:3
16,10:13
16,11:7
16,12:7
16,14:19
16,17:13
16,18:10
16,24:8
16,30:28
16,41:13
16,68:15
16,69:7
16,70:3
17,1:5
17,2:5
17,3:5
17,4:15
17,5:5
17,6:2
17,8:16
17,9:13
17,11:6
17,12:6
17,13:13
17,14:6
17,18:23
17,19:6
17,24:5
17,30:15
17,68:2
17,69:6
17,70:16
18,1:18
18,2:18
18,3:18
18,4:38
18,5:18
18,6:25
18,7:23
18,8:7
18,9:10
18,10:23
18,11:17
18,12:17
18,13:10
18,14:29
18,17:23
18,19:29
18,24:18
18,30:38
18,41:23
18,68:25
18,69:17
18,70:7
19,1:11
19,2:11
19,3:11
19,4:9
19,5:11
19,6:4
19,7:6
19,8:22
19,9:19
19,10:6
19,11:12
19,12:12
19,13:19
19,20:34
19,22:34
19,24:11
19,30:9
19,41:6
19,57:19
19,68:4
19,69:12
19,70:22
20,1:23
20,2:23
20,3:23
20,4:43
20,5:23
20,6:30
20,7:28
20,8:12
20,9:15
20,10:28
20,11:22
20,12:22
20,13:15
20,14:34
20,24:23
20,30:43
20,41:28
20,57:15
20,59:36
20,68:30
20,69:22
20,70:12
21,1:23
21,2:23
21,3:23
21,4:43
21,5:23
21,6:30
21,7:28
21,8:12
21,9:15
21,10:28
21,11:22
21,12:22
21,13:15
21,14:34
21,23:20
21,24:23
21,30:43
21,41:28
21,57:15
21,59:36
21,68:30
21,69:22
21,70:12
22,1:23
22,2:23
22,3:23
22,4:43
22,5:23
22,6:30
22,7:28
22,8:12
22,9:15
22,10:28
22,11:22
22,12:22
22,13:15
22,14:34
22,23:20
22,24:23
22,30:43
22,41:28
22,57:15
22,59:36
22,68:30
22,69:22
22,70:12
23,24:3
23,25:8
23,30:23
23,33:17
23,41:8
23,57:5
23,58:20
23,59:16
23,68:10
23,69:2
23,70:8
24,4:20
24,6:7
24,7:5
24,8:11
24,9:8
24,10:5
24,11:1
24,12:1
24,13:8
24,14:11
24,15:20
24,16:8
24,17:5
24,18:18
24,19:11
24,20:23
24,21:23
24,22:23
24,23:3
24,25:5
24,30:20
24,31:3
24,32:3
24,33:14
24,34:14
24,41:5
24,57:8
24,58:23
24,59:13
24,68:7
24,69:1
24,70:11
25,26:28
25,27:31
25,28:31
25,29:31
25,30:15
25,31:8
25,32:8
25,33:9
25,34:9
25,57:13
25,58:28
25,59:8
25,68:2
25,69:6
25,70:16
26,27:3
26,28:3
26,29:3
26,30:43
26,31:20
26,32:20
26,33:37
26,34:37
26,41:28
26,57:15
26,59:36
26,68:30
26,69:22
26,70:12
27,26:3
27,30:46
27,31:23
27,32:23
27,33:40
27,34:40
27,35:3
27,41:31
27,57:18
27,58:3
27,59:39
27,68:33
27,69:25
27,70:15
28,26:3
28,30:46
28,31:23
28,32:23
28,33:40
28,34:40
28,35:3
28,41:31
28,57:18
28,58:3
28,59:39
28,68:33
28,69:25
28,70:15
29,26:3
29,30:46
29,31:23
29,32:23
29,33:40
29,34:40
29,35:3
29,41:31
29,57:18
29,58:3
29,59:39
29,68:33
29,69:25
29,70:15
30,1:20
30,2:20
30,3:20
30,6:13
30,7:15
30,8:31
30,9:28
30,10:15
30,11:21
30,12:21
30,13:28
30,14:9
30,16:28
30,17:15
30,18:38
30,19:9
30,20:43
30,21:43
30,22:43
30,23:23
30,24:20
30,25:15
30,26:43
30,27:46
30,28:46
30,29:46
30,31:23
30,33:6
30,34:6
30,41:15
30,57:28
30,58:43
30,59:7
30,68:13
30,69:21
30,70:31
31,24:3
31,25:8
31,26:20
31,27:23
31,28:23
31,29:23
31,33:17
31,34:17
31,41:8
31,57:5
31,58:20
31,59:16
31,68:10
31,69:2
31,70:8
32,24:3
32,25:8
32,26:20
32,27:23
32,28:23
32,29:23
32,33:17
32,34:17
32,35:20
32,41:8
32,57:5
32,58:20
32,59:16
32,68:10
32,69:2
32,70:8
33,24:14
33,25:9
33,26:37
33,27:40
33,28:40
33,29:40
33,30:6
33,31:17
33,32:17
33,41:9
33,57:22
33,58:37
33,59:1
33,68:7
33,69:15
33,70:25
34,24:14
34,25:9
34,26:37
34,27:40
34,28:40
34,29:40
34,30:6
34,31:17
34,32:17
34,35:37
34,41:9
34,57:22
34,58:37
34,59:1
34,68:7
34,69:15
34,70:25
35,36:37
35,41:28
35,48:36
35,53:42
35,56:36
35,57:15
35,59:36
35,60:5
35,61:5
35,68:30
35,69:22
35,70:12
36,41:9
36,44:37
36,45:5
36,46:5
36,48:1
36,49:2
36,51:37
36,52:10
36,53:5
36,54:10
36,55:2
36,56:1
36,57:22
36,58:37
36,59:1
36,60:32
36,61:32
36,62:37
36,63:19
36,65:2
36,66:32
36,67:32
36,68:7
36,69:15
36,70:25
37,41:9
37,44:37
37,45:5
37,46:5
37,48:1
37,49:2
37,51:37
37,52:10
37,53:5
37,54:10
37,55:2
37,56:1
37,57:22
37,58:37
37,59:1
37,60:32
37,61:32
37,62:37
37,63:19
37,65:2
37,66:32
37,67:32
37,68:7
37,69:15
37,70:25
38,39:1
38,41:9
38,44:37
38,45:5
38,46:5
38,48:1
38,49:2
38,51:37
38,52:10
38,53:5
38,54:10
38,55:2
38,56:1
38,57:22
38,58:37
38,59:1
38,60:32
38,61:32
38,62:37
38,63:19
38,65:2
38,66:32
38,67:32
38,68:7
38,69:15
38,70:25
39,41:8
39,44:36
39,45:6
39,46:6
39,47:1
39,49:1
39,51:36
39,52:9
39,53:6
39,54:9
39,55:1
39,57:21
39,58:36
39,60:31
39,61:31
39,62:36
39,63:18
39,64:1
39,65:1
39,66:31
39,67:31
39,68:6
39,69:14
39,70:24
40,41:8
40,42:31
40,44:36
40,45:6
40,46:6
40,47:1
40,49:1
40,51:36
40,52:9
40,53:6
40,54:9
40,55:1
40,57:21
40,58:36
40,60:31
40,61:31
40,62:36
40,63:18
40,64:1
40,65:1
40,66:31
40,67:31
40,68:6
40,69:14
40,70:24
41,2:5
41,3:5
41,4:15
41,5:5
41,6:2
41,8:16
41,9:13
41,11:6
41,12:6
41,13:13
41,14:6
41,15:15
41,16:13
41,18:23
41,19:6
41,20:28
41,21:28
41,22:28
41,23:8
41,24:5
41,26:28
41,27:31
41,28:31
41,29:31
41,30:15
41,31:8
41,32:8
41,33:9
41,34:9
41,35:28
41,36:9
41,37:9
41,38:9
41,39:8
41,40:8
41,42:23
41,44:28
41,45:14
41,46:14
41,47:9
41,48:8
41,49:7
41,51:28
41,52:1
41,53:14
41,54:1
41,55:7
41,56:8
41,57:13
41,58:28
41,59:8
41,60:23
41,61:23
41,62:28
41,63:10
41,64:9
41,65:7
41,66:23
41,67:23
41,68:2
41,69:6
41,70:16
42,44:5
42,45:37
42,46:37
42,47:32
42,48:31
42,49:30
42,51:5
42,52:22
42,53:37
42,54:22
42,55:30
42,56:31
42,57:10
42,58:5
42,59:31
42,62:5
42,63:13
42,64:32
42,65:30
42,68:25
42,69:17
42,70:7
43,44:5
43,45:37
43,46:37
43,47:32
43,48:31
43,49:30
43,50:30
43,51:5
43,52:22
43,53:37
43,54:22
43,55:30
43,56:31
43,57:10
43,58:5
43,59:31
43,62:5
43,63:13
43,64:32
43,65:30
43,68:25
43,69:17
43,70:7
44,36:37
44,37:37
44,38:37
44,39:36
44,40:36
44,41:28
44,42:5
44,43:5
44,45:42
44,48:36
44,49:35
44,52:27
44,53:42
44,54:27
44,55:35
44,56:36
44,57:15
44,59:36
44,60:5
44,61:5
44,63:18
44,64:37
44,65:35
44,66:5
44,67:5
44,68:30
44,69:22
44,70:12
45,36:5
45,37:5
45,38:5
45,39:6
45,40:6
45,41:14
45,42:37
45,43:37
45,48:6
45,49:7
45,51:42
45,52:15
45,54:15
45,55:7
45,56:6
45,57:27
45,58:42
45,59:6
45,60:37
45,61:37
45,62:42
45,63:24
45,64:5
45,65:7
45,66:37
45,67:37
45,68:12
45,69:20
45,70:30
46,36:5
46,37:5
46,38:5
46,39:6
46,40:6
46,41:14
46,42:37
46,43:37
46,47:5
46,48:6
46,49:7
46,51:42
46,52:15
46,54:15
46,55:7
46,56:6
46,57:27
46,58:42
46,59:6
46,60:37
46,61:37
46,62:42
46,63:24
46,64:5
46,65:7
46,66:37
46,67:37
46,68:12
46,69:20
46,70:30
47,39:1
47,40:1
47,41:9
47,42:32
47,43:32
47,48:1
47,49:2
47,50:2
47,51:37
47,52:10
47,53:5
47,54:10
47,55:2
47,56:1
47,57:22
47,58:37
47,59:1
47,60:32
47,61:32
47,62:37
47,63:19
47,65:2
47,66:32
47,67:32
47,68:7
47,69:15
47,70:25
48,36:1
48,37:1
48,38:1
48,41:8
48,42:31
48,43:31
48,44:36
48,45:6
48,46:6
48,47:1
48,49:1
48,51:36
48,52:9
48,53:6
48,54:9
48,55:1
48,57:21
48,58:36
48,60:31
48,61:31
48,62:36
48,63:18
48,64:1
48,65:1
48,66:31
48,67:31
48,68:6
48,69:14
48,70:24
49,36:2
49,37:2
49,38:2
49,39:1
49,40:1
49,41:7
49,42:30
49,43:30
49,44:35
49,45:7
49,46:7
49,47:2
49,51:35
49,52:8
49,53:7
49,54:8
49,56:1
49,57:20
49,58:35
49,59:1
49,60:30
49,61:30
49,62:35
49,63:17
49,64:2
49,66:30
49,67:30
49,68:5
49,69:13
49,70:23
50,51:35
50,52:8
50,53:7
50,54:8
50,56:1
50,57:20
50,58:35
50,59:1
50,60:30
50,61:30
50,62:35
50,63:17
50,64:2
50,66:30
50,67:30
50,68:5
50,69:13
50,70:23
51,36:37
51,37:37
51,38:37
51,39:36
51,40:36
51,41:28
51,42:5
51,43:5
51,45:42
51,46:42
51,47:37
51,48:36
51,49:35
51,50:35
51,52:27
51,53:42
51,56:36
51,57:15
51,59:36
51,60:5
51,61:5
51,63:18
51,64:37
51,65:35
51,66:5
51,67:5
51,68:30
51,69:22
51,70:12
52,36:10
52,37:10
52,38:10
52,39:9
52,40:9
52,41:1
52,42:22
52,43:22
52,44:27
52,45:15
52,46:15
52,47:10
52,48:9
52,49:8
52,50:8
52,53:15
52,56:9
52,57:12
52,58:27
52,59:9
52,60:22
52,61:22
52,62:27
52,63:9
52,64:10
52,65:8
52,66:22
52,67:22
52,68:3
52,69:5
52,70:15
53,36:5
53,37:5
53,38:5
53,39:6
53,40:6
53,41:14
53,42:37
53,43:37
53,44:42
53,47:5
53,48:6
53,49:7
53,50:7
53,51:42
53,52:15
53,54:15
53,56:6
53,57:27
53,58:42
53,59:6
53,60:37
53,61:37
53,62:42
53,63:24
53,64:5
53,65:7
53,66:37
53,67:37
53,68:12
53,69:20
53,70:30
54,36:10
54,37:10
54,38:10
54,39:9
54,40:9
54,41:1
54,42:22
54,43:22
54,44:27
54,45:15
54,46:15
54,47:10
54,48:9
54,49:8
54,50:8
54,55:8
54,56:9
54,57:12
54,58:27
54,59:9
54,60:22
54,61:22
54,62:27
54,63:9
54,64:10
54,65:8
54,66:22
54,67:22
54,68:3
54,69:5
54,70:15
55,36:2
55,37:2
55,38:2
55,39:1
55,40:1
55,41:7
55,42:30
55,43:30
55,44:35
55,45:7
55,46:7
55,47:2
55,48:1
55,56:1
55,57:20
55,58:35
55,59:1
55,60:30
55,61:30
55,62:35
55,63:17
55,64:2
55,66:30
55,67:30
55,68:5
55,69:13
55,70:23
56,36:1
56,37:1
56,38:1
56,41:8
56,42:31
56,43:31
56,44:36
56,45:6
56,46:6
56,47:1
56,49:1
56,50:1
56,51:36
56,52:9
56,53:6
56,54:9
56,55:1
56,57:21
56,58:36
56,60:31
56,61:31
56,62:36
56,63:18
56,64:1
56,65:1
56,66:31
56,67:31
56,68:6
56,69:14
56,70:24
57,1:8
57,2:8
57,3:8
57,4:28
57,5:8
57,6:15
57,7:13
57,8:3
57,10:13
57,11:7
57,12:7
57,14:19
57,20:15
57,21:15
57,22:15
57,23:5
57,24:8
57,25:13
57,26:15
57,27:18
57,28:18
57,29:18
57,30:28
57,31:5
57,32:5
57,33:22
57,34:22
57,35:15
57,36:22
57,37:22
57,38:22
57,39:21
57,40:21
57,41:13
57,42:10
57,43:10
57,44:15
57,45:27
57,46:27
57,47:22
57,48:21
57,49:20
57,50:20
57,51:15
57,52:12
57,53:27
57,54:12
57,55:20
57,56:21
57,58:15
57,61:10
57,62:15
57,63:3
57,64:22
57,65:20
57,66:10
57,67:10
57,68:15
57,69:7
57,70:3
58,1:23
58,2:23
58,3:23
58,4:43
58,5:23
58,6:30
58,7:28
58,8:12
58,9:15
58,10:28
58,11:22
58,12:22
58,13:15
58,14:34
58,23:20
58,24:23
58,25:28
58,27:3
58,28:3
58,29:3
58,30:43
58,31:20
58,32:20
58,33:37
58,34:37
58,36:37
58,37:37
58,38:37
58,39:36
58,40:36
58,41:28
58,42:5
58,43:5
58,45:42
58,46:42
58,47:37
58,48:36
58,49:35
58,50:35
58,52:27
58,53:42
58,54:27
58,55:35
58,56:36
58,59:36
58,61:5
58,63:18
58,64:37
58,65:35
58,66:5
58,67:5
58,68:30
58,69:22
58,70:12
59,1:13
59,2:13
59,3:13
59,4:7
59,5:13
59,6:6
59,7:8
59,8:24
59,9:21
59,10:8
59,11:14
59,12:14
59,13:21
59,14:2
59,20:36
59,21:36
59,22:36
59,23:16
59,24:13
59,25:8
59,26:36
59,27:39
59,28:39
59,29:39
59,30:7
59,31:16
59,32:16
59,33:1
59,34:1
59,35:36
59,36:1
59,37:1
59,38:1
59,41:8
59,42:31
59,43:31
59,44:36
59,45:6
59,46:6
59,47:1
59,49:1
59,50:1
59,51:36
59,52:9
59,53:6
59,54:9
59,55:1
59,60:31
59,61:31
59,62:36
59,63:18
59,64:1
59,65:1
59,66:31
59,67:31
59,68:6
59,69:14
59,70:24
60,36:32
60,37:32
60,38:32
60,39:31
60,40:31
60,41:23
60,44:5
60,45:37
60,46:37
60,47:32
60,48:31
60,49:30
60,50:30
60,51:5
60,52:22
60,53:37
60,54:22
60,55:30
60,56:31
60,62:5
60,63:13
60,64:32
60,65:30
60,68:25
60,69:17
60,70:7
61,36:32
61,37:32
61,38:32
61,39:31
61,40:31
61,41:23
61,44:5
61,45:37
61,46:37
61,47:32
61,48:31
61,49:30
61,50:30
61,51:5
61,52:22
61,53:37
61,54:22
61,55:30
61,56:31
61,57:10
61,58:5
61,59:31
61,62:5
61,63:13
61,64:32
61,65:30
61,68:25
61,69:17
61,70:7
62,36:37
62,37:37
62,38:37
62,39:36
62,40:36
62,41:28
62,42:5
62,43:5
62,45:42
62,46:42
62,47:37
62,48:36
62,49:35
62,50:35
62,52:27
62,53:42
62,54:27
62,55:35
62,56:36
62,57:15
62,59:36
62,60:5
62,61:5
62,63:18
62,68:30
62,69:22
62,70:12
63,36:19
63,37:19
63,38:19
63,39:18
63,40:18
63,41:10
63,42:13
63,43:13
63,44:18
63,45:24
63,46:24
63,47:19
63,48:18
63,49:17
63,50:17
63,51:18
63,52:9
63,53:24
63,54:9
63,55:17
63,56:18
63,57:3
63,58:18
63,59:18
63,60:13
63,61:13
63,64:19
63,68:12
63,69:4
63,70:6
64,39:1
64,40:1
64,41:9
64,42:32
64,43:32
64,44:37
64,45:5
64,46:5
64,48:1
64,49:2
64,50:2
64,51:37
64,52:10
64,53:5
64,54:10
64,55:2
64,56:1
64,57:22
64,58:37
64,59:1
64,60:32
64,61:32
64,65:2
64,66:32
64,67:32
64,68:7
64,69:15
64,70:25
65,36:2
65,37:2
65,38:2
65,39:1
65,40:1
65,41:7
65,42:30
65,43:30
65,44:35
65,45:7
65,46:7
65,47:2
65,48:1
65,51:35
65,52:8
65,53:7
65,54:8
65,56:1
65,57:20
65,58:35
65,59:1
65,60:30
65,66:30
65,67:30
65,68:5
65,69:13
65,70:23
66,36:32
66,37:32
66,38:32
66,39:31
66,40:31
66,41:23
66,44:5
66,45:37
66,46:37
66,47:32
66,48:31
66,49:30
66,50:30
66,51:5
66,52:22
66,53:37
66,54:22
66,55:30
66,56:31
66,57:10
66,58:5
66,59:31
66,65:30
66,68:25
66,69:17
66,70:7
67,36:32
67,37:32
67,38:32
67,39:31
67,40:31
67,41:23
67,44:5
67,45:37
67,46:37
67,47:32
67,48:31
67,49:30
67,50:30
67,51:5
67,52:22
67,53:37
67,54:22
67,55:30
67,56:31
67,57:10
67,58:5
67,59:31
67,65:30
67,68:25
67,69:17
67,70:7
68,4:13
68,5:7
68,7:2
68,8:18
68,9:15
68,10:2
68,11:8
68,12:8
68,13:15
68,14:4
68,15:13
68,16:15
68,17:2
68,18:25
68,19:4
68,20:30
68,21:30
68,22:30
68,23:10
68,24:7
68,25:2
68,26:30
68,27:33
68,28:33
68,29:33
68,30:13
68,31:10
68,32:10
68,33:7
68,34:7
68,35:30
68,36:7
68,37:7
68,38:7
68,39:6
68,40:6
68,41:2
68,42:25
68,43:25
68,44:30
68,45:12
68,46:12
68,47:7
68,48:6
68,49:5
68,50:5
68,51:30
68,52:3
68,53:12
68,54:3
68,55:5
68,56:6
68,57:15
68,58:30
68,59:6
68,60:25
68,61:25
68,62:30
68,63:12
68,64:7
68,65:5
68,66:25
68,67:25
68,69:8
68,70:18
69,2:1
69,3:1
69,4:21
69,5:1
69,6:8
69,7:6
69,8:10
69,9:7
69,10:6
69,13:7
69,14:12
69,15:21
69,16:7
69,17:6
69,18:17
69,19:12
69,20:22
69,21:22
69,22:22
69,23:2
69,24:1
69,25:6
69,26:22
69,27:25
69,28:25
69,29:25
69,30:21
69,31:2
69,32:2
69,33:15
69,34:15
69,35:22
69,36:15
69,37:15
69,38:15
69,39:14
69,40:14
69,41:6
69,42:17
69,43:17
69,44:22
69,45:20
69,46:20
69,47:15
69,48:14
69,49:13
69,50:13
69,51:22
69,52:5
69,53:20
69,54:5
69,55:13
69,56:14
69,57:7
69,58:22
69,59:14
69,60:17
69,61:17
69,62:22
69,63:4
69,64:15
69,65:13
69,66:17
69,67:17
69,68:8
69,70:10
70,2:11
70,3:11
70,4:31
70,5:11
70,6:18
70,7:16
70,9:3
70,10:16
70,11:10
70,12:10
70,13:3
70,14:22
70,15:31
70,16:3
70,17:16
70,18:7
70,19:22
70,20:12
70,21:12
70,22:12
70,23:8
70,24:11
70,25:16
70,26:12
70,27:15
70,28:15
70,29:15
70,30:31
70,31:8
70,32:8
70,33:25
70,34:25
70,35:12
70,36:25
70,37:25
70,38:25
70,39:24
70,40:24
70,41:16
70,42:7
70,43:7
70,44:12
70,45:30
70,46:30
70,47:25
70,48:24
70,49:23
70,50:23
70,51:12
70,52:15
70,53:30
70,54:15
70,55:23
70,56:24
70,57:3
70,58:12
70,59:24
70,60:7
70,61:7
70,62:12
70,63:6
70,64:25
70,65:23
70,66:7
70,67:7
70,68:18
70,69:10

<setup times backward>
1,9:8
1,11:1
1,16:8
1,18:18
1,20:23
1,21:23
1,22:23
1,57:8
1,58:23
2,9:8
2,11:1
2,16:8
2,18:18
2,20:23
2,21:23
2,22:23
2,57:8
2,58:23
2,69:1
2,70:11
3,9:8
3,11:1
3,16:8
3,18:18
3,20:23
3,21:23
3,22:23
3,57:8
3,58:23
3,69:1
3,70:11
4,1:20
4,2:20
4,3:20
4,5:20
4,9:28
4,10:15
4,11:21
4,16:28
4,17:15
4,18:38
4,19:9
4,20:43
4,21:43
4,22:43
4,24:20
4,41:15
4,57:28
4,58:43
4,59:7
4,68:13
4,69:21
4,70:31
5,9:8
5,11:1
5,16:8
5,18:18
5,20:23
5,21:23
5,22:23
5,57:8
5,58:23
5,69:1
5,70:11
6,1:7
6,2:7
6,3:7
6,5:7
6,7:2
6,9:15
6,10:2
6,11:8
6,16:15
6,17:2
6,18:25
6,20:30
6,21:30
6,22:30
6,24:7
6,41:2
6,57:15
6,58:30
6,69:8
6,70:18
7,1:5
7,2:5
7,3:5
7,5:5
7,9:13
7,11:6
7,16:13
7,18:23
7,20:28
7,21:28
7,22:28
7,24:5
7,57:13
7,58:28
7,69:6
7,70:16
8,18:7
8,20:12
8,21:12
8,22:12
8,58:12
9,8:3
9,18:10
9,20:15
9,21:15
9,22:15
9,58:15
9,70:3
10,1:5
10,2:5
10,3:5
10,5:5
10,8:16
10,9:13
10,16:13
10,18:23
10,20:28
10,21:28
10,22:28
10,24:5
10,57:13
10,58:28
10,69:6
10,70:16
11,8:10
11,9:7
11,16:7
11,18:17
11,20:22
11,21:22
11,22:22
11,57:7
11,58:22
11,70:10
12,8:10
12,9:7
12,16:7
12,18:17
12,20:22
12,21:22
12,22:22
12,57:7
12,58:22
12,70:10
13,8:3
13,18:10
13,20:15
13,21:15
13,22:15
13,58:15
13,70:3
14,1:11
14,2:11
14,3:11
14,5:11
14,6:4
14,7:6
14,8:22
14,9:19
14,10:6
14,11:12
14,12:12
14,13:19
14,16:19
14,17:6
14,18:29
14,20:34
14,21:34
14,22:34
14,24:11
14,41:6
14,57:19
14,58:34
14,68:4
14,69:12
14,70:22
15,1:20
15,2:20
15,3:20
15,5:20
15,6:13
15,7:15
15,8:31
15,9:28
15,10:15
15,11:21
15,12:21
15,13:28
15,14:9
15,24:20
15,41:15
15,68:13
15,69:21
15,70:31
16,8:3
16,70:3
17,1:5
17,2:5
17,3:5
17,5:5
17,8:16
17,9:13
17,11:6
17,12:6
17,13:13
17,16:13
17,18:23
17,24:5
17,69:6
17,70:16
19,1:11
19,2:11
19,3:11
19,5:11
19,6:4
19,7:6
19,8:22
19,9:19
19,10:6
19,11:12
19,12:12
19,13:19
19,16:19
19,17:6
19,18:29
19,24:11
19,41:6
19,68:4
19,69:12
19,70:22
23,8:8
23,9:5
23,13:5
23,16:5
23,18:15
23,20:20
23,21:20
23,22:20
23,57:5
23,58:20
23,70:8
24,8:11
24,9:8
24,11:1
24,12:1
24,13:8
24,16:8
24,18:18
24,20:23
24,21:23
24,22:23
24,23:3
24,31:3
24,32:3
24,57:8
24,58:23
24,69:1
24,70:11
25,1:5
25,2:5
25,3:5
25,5:5
25,8:16
25,9:13
25,11:6
25,12:6
25,13:13
25,16:13
25,18:23
25,20:28
25,21:28
25,22:28
25,23:8
25,24:5
25,31:8
25,32:8
25,57:13
25,58:28
25,69:6
25,70:16
26,27:3
26,28:3
26,29:3
30,1:20
30,2:20
30,3:20
30,5:20
30,6:13
30,7:15
30,8:31
30,9:28
30,10:15
30,11:21
30,12:21
30,13:28
30,14:9
30,16:28
30,17:15
30,18:38
30,19:9
30,20:43
30,21:43
30,22:43
30,23:23
30,24:20
30,25:15
30,26:43
30,27:46
30,28:46
30,29:46
30,33:6
30,34:6
30,41:15
30,57:28
30,58:43
30,59:7
30,68:13
30,69:21
30,70:31
31,8:8
31,9:5
31,13:5
31,16:5
31,18:15
31,20:20
31,21:20
31,22:20
31,26:20
31,27:23
31,28:23
31,29:23
31,57:5
31,58:20
31,70:8
32,8:8
32,9:5
32,13:5
32,16:5
32,18:15
32,20:20
32,21:20
32,22:20
32,26:20
32,27:23
32,28:23
32,29:23
32,57:5
32,58:20
32,70:8
33,1:14
33,2:14
33,3:14
33,5:14
33,6:7
33,7:9
33,8:25
33,9:22
33,10:9
33,11:15
33,12:15
33,13:22
33,14:3
33,16:22
33,17:9
33,18:32
33,19:3
33,20:37
33,21:37
33,22:37
33,23:17
33,24:14
33,25:9
33,26:37
33,27:40
33,28:40
33,29:40
33,31:17
33,32:17
33,41:9
33,57:22
33,58:37
33,59:1
33,68:7
33,69:15
33,70:25
34,1:14
34,2:14
34,3:14
34,5:14
34,6:7
34,7:9
34,8:25
34,9:22
34,10:9
34,11:15
34,12:15
34,13:22
34,14:3
34,16:22
34,17:9
34,18:32
34,19:3
34,20:37
34,21:37
34,22:37
34,23:17
34,24:14
34,25:9
34,26:37
34,27:40
34,28:40
34,29:40
34,31:17
34,32:17
34,41:9
34,57:22
34,58:37
34,59:1
34,68:7
34,69:15
34,70:25
35,27:3
35,28:3
35,29:3
36,1:14
36,2:14
36,3:14
36,5:14
36,6:7
36,7:9
36,8:25
36,9:22
36,10:9
36,11:15
36,12:15
36,13:22
36,14:3
36,16:22
36,17:9
36,18:32
36,19:3
36,20:37
36,21:37
36,22:37
36,23:17
36,24:14
36,25:9
36,26:37
36,27:40
36,28:40
36,29:40
36,31:17
36,32:17
36,35:37
36,41:9
36,44:37
36,48:1
36,49:2
36,51:37
36,52:10
36,54:10
36,55:2
36,56:1
36,57:22
36,58:37
36,59:1
36,60:32
36,61:32
36,62:37
36,63:19
36,65:2
36,66:32
36,67:32
36,68:7
36,69:15
36,70:25
37,1:14
37,2:14
37,3:14
37,5:14
37,6:7
37,7:9
37,8:25
37,9:22
37,10:9
37,11:15
37,12:15
37,13:22
37,14:3
37,16:22
37,17:9
37,18:32
37,19:3
37,20:37
37,21:37
37,22:37
37,23:17
37,24:14
37,25:9
37,26:37
37,27:40
37,28:40
37,29:40
37,31:17
37,32:17
37,35:37
37,41:9
37,44:37
37,48:1
37,49:2
37,51:37
37,52:10
37,54:10
37,55:2
37,56:1
37,57:22
37,58:37
37,59:1
37,60:32
37,61:32
37,62:37
37,63:19
37,65:2
37,66:32
37,67:32
37,68:7
37,69:15
37,70:25
38,1:14
38,2:14
38,3:14
38,5:14
38,6:7
38,7:9
38,8:25
38,9:22
38,10:9
38,11:15
38,12:15
38,13:22
38,14:3
38,16:22
38,17:9
38,18:32
38,19:3
38,20:37
38,21:37
38,22:37
38,23:17
38,24:14
38,25:9
38,26:37
38,27:40
38,28:40
38,29:40
38,31:17
38,32:17
38,35:37
38,41:9
38,44:37
38,48:1
38,49:2
38,51:37
38,52:10
38,54:10
38,55:2
38,56:1
38,57:22
38,58:37
38,59:1
38,60:32
38,61:32
38,62:37
38,63:19
38,65:2
38,66:32
38,67:32
38,68:7
38,69:15
38,70:25
39,1:13
39,2:13
39,3:13
39,5:13
39,6:6
39,7:8
39,8:24
39,9:21
39,10:8
39,11:14
39,12:14
39,13:21
39,14:2
39,16:21
39,17:8
39,18:31
39,19:2
39,20:36
39,21:36
39,22:36
39,23:16
39,24:13
39,25:8
39,26:36
39,27:39
39,28:39
39,29:39
39,31:16
39,32:16
39,35:36
39,41:8
39,44:36
39,49:1
39,51:36
39,52:9
39,54:9
39,55:1
39,57:21
39,58:36
39,60:31
39,61:31
39,62:36
39,63:18
39,65:1
39,66:31
39,67:31
39,68:6
39,69:14
39,70:24
40,1:13
40,2:13
40,3:13
40,5:13
40,6:6
40,7:8
40,8:24
40,9:21
40,10:8
40,11:14
40,12:14
40,13:21
40,14:2
40,16:21
40,17:8
40,18:31
40,19:2
40,20:36
40,21:36
40,22:36
40,23:16
40,24:13
40,25:8
40,26:36
40,27:39
40,28:39
40,29:39
40,31:16
40,32:16
40,35:36
40,41:8
40,44:36
40,49:1
40,51:36
40,52:9
40,54:9
40,55:1
40,57:21
40,58:36
40,60:31
40,61:31
40,62:36
40,63:18
40,65:1
40,66:31
40,67:31
40,68:6
40,69:14
40,70:24
41,1:5
41,2:5
41,3:5
41,5:5
41,8:16
41,9:13
41,11:6
41,12:6
41,13:13
41,16:13
41,18:23
41,20:28
41,21:28
41,22:28
41,23:8
41,24:5
41,26:28
41,27:31
41,28:31
41,29:31
41,31:8
41,32:8
41,35:28
41,44:28
41,51:28
41,52:1
41,54:1
41,57:13
41,58:28
41,60:23
41,61:23
41,62:28
41,63:10
41,66:23
41,67:23
41,69:6
41,70:16
42,20:5
42,21:5
42,22:5
42,26:5
42,27:8
42,28:8
42,29:8
42,35:5
42,44:5
42,51:5
42,58:5
42,62:5
43,20:5
43,21:5
43,22:5
43,26:5
43,27:8
43,28:8
43,29:8
43,35:5
43,44:5
43,51:5
43,58:5
43,62:5
44,27:3
44,28:3
44,29:3
45,1:19
45,2:19
45,3:19
45,5:19
45,6:12
45,7:14
45,8:30
45,9:27
45,10:14
45,11:20
45,12:20
45,13:27
45,14:8
45,16:27
45,17:14
45,18:37
45,19:8
45,20:42
45,21:42
45,22:42
45,23:22
45,24:19
45,25:14
45,26:42
45,27:45
45,28:45
45,29:45
45,31:22
45,32:22
45,33:5
45,34:5
45,35:42
45,36:5
45,37:5
45,38:5
45,39:6
45,40:6
45,41:14
45,42:37
45,43:37
45,44:42
45,48:6
45,49:7
45,51:42
45,52:15
45,54:15
45,55:7
45,56:6
45,57:27
45,58:42
45,59:6
45,60:37
45,61:37
45,62:42
45,63:24
45,64:5
45,65:7
45,66:37
45,67:37
45,68:12
45,69:20
45,70:30
46,1:19
46,2:19
46,3:19
46,5:19
46,6:12
46,7:14
46,8:30
46,9:27
46,10:14
46,11:20
46,12:20
46,13:27
46,14:8
46,16:27
46,17:14
46,18:37
46,19:8
46,20:42
46,21:42
46,22:42
46,23:22
46,24:19
46,25:14
46,26:42
46,27:45
46,28:45
46,29:45
46,31:22
46,32:22
46,33:5
46,34:5
46,35:42
46,36:5
46,37:5
46,38:5
46,39:6
46,40:6
46,41:14
46,42:37
46,43:37
46,44:42
46,48:6
46,49:7
46,51:42
46,52:15
46,54:15
46,55:7
46,56:6
46,57:27
46,58:42
46,59:6
46,60:37
46,61:37
46,62:42
46,63:24
46,64:5
46,65:7
46,66:37
46,67:37
46,68:12
46,69:20
46,70:30
47,1:14
47,2:14
47,3:14
47,5:14
47,6:7
47,7:9
47,8:25
47,9:22
47,10:9
47,11:15
47,12:15
47,13:22
47,14:3
47,16:22
47,17:9
47,18:32
47,19:3
47,20:37
47,21:37
47,22:37
47,23:17
47,24:14
47,25:9
47,26:37
47,27:40
47,28:40
47,29:40
47,31:17
47,32:17
47,35:37
47,39:1
47,40:1
47,41:9
47,42:32
47,43:32
47,44:37
47,48:1
47,49:2
47,51:37
47,52:10
47,54:10
47,55:2
47,56:1
47,57:22
47,58:37
47,59:1
47,60:32
47,61:32
47,62:37
47,63:19
47,65:2
47,66:32
47,67:32
47,68:7
47,69:15
47,70:25
48,1:13
48,2:13
48,3:13
48,5:13
48,6:6
48,7:8
48,8:24
48,9:21
48,10:8
48,11:14
48,12:14
48,13:21
48,14:2
48,16:21
48,17:8
48,18:31
48,19:2
48,20:36
48,21:36
48,22:36
48,23:16
48,24:13
48,25:8
48,26:36
48,27:39
48,28:39
48,29:39
48,31:16
48,32:16
48,35:36
48,41:8
48,42:31
48,43:31
48,44:36
48,51:36
48,52:9
48,54:9
48,55:1
48,57:21
48,58:36
48,60:31
48,61:31
48,62:36
48,63:18
48,65:1
48,66:31
48,67:31
48,68:6
48,69:14
48,70:24
49,1:12
49,2:12
49,3:12
49,5:12
49,6:5
49,7:7
49,8:23
49,9:20
49,10:7
49,11:13
49,12:13
49,13:20
49,14:1
49,16:20
49,17:7
49,18:30
49,19:1
49,20:35
49,21:35
49,22:35
49,23:15
49,24:12
49,25:7
49,26:35
49,27:38
49,28:38
49,29:38
49,31:15
49,32:15
49,35:35
49,41:7
49,42:30
49,43:30
49,44:35
49,51:35
49,52:8
49,54:8
49,57:20
49,58:35
49,60:30
49,61:30
49,62:35
49,63:17
49,66:30
49,67:30
49,68:5
49,69:13
49,70:23
50,1:12
50,2:12
50,3:12
50,5:12
50,6:5
50,7:7
50,8:23
50,9:20
50,10:7
50,11:13
50,12:13
50,13:20
50,14:1
50,16:20
50,17:7
50,18:30
50,19:1
50,20:35
50,21:35
50,22:35
50,23:15
50,24:12
50,25:7
50,26:35
50,27:38
50,28:38
50,29:38
50,31:15
50,32:15
50,35:35
50,41:7
50,42:30
50,43:30
50,44:35
50,51:35
50,52:8
50,54:8
50,57:20
50,58:35
50,60:30
50,61:30
50,62:35
50,63:17
50,66:30
50,67:30
50,68:5
50,69:13
50,70:23
51,27:3
51,28:3
51,29:3
52,1:4
52,2:4
52,3:4
52,5:4
52,8:15
52,9:12
52,11:5
52,12:5
52,13:12
52,16:12
52,18:22
52,20:27
52,21:27
52,22:27
52,23:7
52,24:4
52,26:27
52,27:30
52,28:30
52,29:30
52,31:7
52,32:7
52,35:27
52,42:22
52,43:22
52,44:27
52,51:27
52,57:12
52,58:27
52,60:22
52,61:22
52,62:27
52,63:9
52,66:22
52,67:22
52,69:5
52,70:15
53,1:19
53,2:19
53,3:19
53,5:19
53,6:12
53,7:14
53,8:30
53,9:27
53,10:14
53,11:20
53,12:20
53,13:27
53,14:8
53,16:27
53,17:14
53,18:37
53,19:8
53,20:42
53,21:42
53,22:42
53,23:22
53,24:19
53,25:14
53,26:42
53,27:45
53,28:45
53,29:45
53,31:22
53,32:22
53,33:5
53,34:5
53,35:42
53,36:5
53,37:5
53,38:5
53,39:6
53,40:6
53,41:14
53,42:37
53,43:37
53,44:42
53,47:5
53,48:6
53,49:7
53,50:7
53,51:42
53,52:15
53,56:6
53,57:27
53,58:42
53,59:6
53,60:37
53,61:37
53,62:42
53,63:24
53,64:5
53,65:7
53,66:37
53,67:37
53,68:12
53,69:20
53,70:30
54,1:4
54,2:4
54,3:4
54,5:4
54,8:15
54,9:12
54,11:5
54,12:5
54,13:12
54,16:12
54,18:22
54,20:27
54,21:27
54,22:27
54,23:7
54,24:4
54,26:27
54,27:30
54,28:30
54,29:30
54,31:7
54,32:7
54,35:27
54,42:22
54,43:22
54,44:27
54,51:27
54,57:12
54,58:27
54,60:22
54,61:22
54,62:27
54,63:9
54,66:22
54,67:22
54,69:5
54,70:15
55,1:12
55,2:12
55,3:12
55,5:12
55,6:5
55,7:7
55,8:23
55,9:20
55,10:7
55,11:13
55,12:13
55,13:20
55,14:1
55,16:20
55,17:7
55,18:30
55,19:1
55,20:35
55,21:35
55,22:35
55,23:15
55,24:12
55,25:7
55,26:35
55,27:38
55,28:38
55,29:38
55,31:15
55,32:15
55,35:35
55,41:7
55,42:30
55,43:30
55,44:35
55,51:35
55,52:8
55,54:8
55,57:20
55,58:35
55,60:30
55,61:30
55,62:35
55,63:17
55,66:30
55,67:30
55,68:5
55,69:13
55,70:23
56,1:13
56,2:13
56,3:13
56,5:13
56,6:6
56,7:8
56,8:24
56,9:21
56,10:8
56,11:14
56,12:14
56,13:21
56,14:2
56,16:21
56,17:8
56,18:31
56,19:2
56,20:36
56,21:36
56,22:36
56,23:16
56,24:13
56,25:8
56,26:36
56,27:39
56,28:39
56,29:39
56,31:16
56,32:16
56,35:36
56,41:8
56,42:31
56,43:31
56,44:36
56,49:1
56,50:1
56,51:36
56,52:9
56,54:9
56,55:1
56,57:21
56,58:36
56,60:31
56,61:31
56,62:36
56,63:18
56,65:1
56,66:31
56,67:31
56,68:6
56,69:14
56,70:24
57,8:3
57,18:10
57,20:15
57,21:15
57,22:15
57,26:15
57,27:18
57,28:18
57,29:18
57,35:15
57,42:10
57,43:10
57,44:15
57,51:15
57,61:10
57,62:15
57,66:10
57,67:10
57,70:3
58,27:3
58,28:3
58,29:3
59,1:13
59,2:13
59,3:13
59,5:13
59,6:6
59,7:8
59,8:24
59,9:21
59,10:8
59,11:14
59,12:14
59,13:21
59,14:2
59,16:21
59,17:8
59,18:31
59,19:2
59,20:36
59,21:36
59,22:36
59,23:16
59,24:13
59,25:8
59,26:36
59,27:39
59,28:39
59,29:39
59,31:16
59,32:16
59,35:36
59,41:8
59,42:31
59,43:31
59,44:36
59,49:1
59,50:1
59,51:36
59,52:9
59,54:9
59,55:1
59,57:21
59,58:36
59,61:31
59,62:36
59,63:18
59,65:1
59,66:31
59,67:31
59,68:6
59,69:14
59,70:24
60,20:5
60,21:5
60,22:5
60,26:5
60,27:8
60,28:8
60,29:8
60,35:5
60,44:5
60,51:5
60,58:5
60,62:5
61,20:5
61,21:5
61,22:5
61,26:5
61,27:8
61,28:8
61,29:8
61,35:5
61,44:5
61,51:5
61,58:5
61,62:5
62,27:3
62,28:3
62,29:3
63,8:6
63,9:3
63,13:3
63,16:3
63,18:13
63,20:18
63,21:18
63,22:18
63,26:18
63,27:21
63,28:21
63,29:21
63,35:18
63,42:13
63,43:13
63,44:18
63,51:18
63,57:3
63,58:18
63,60:13
63,61:13
63,62:18
63,70:6
64,1:14
64,2:14
64,3:14
64,5:14
64,6:7
64,7:9
64,8:25
64,9:22
64,10:9
64,11:15
64,12:15
64,13:22
64,14:3
64,16:22
64,17:9
64,18:32
64,19:3
64,20:37
64,21:37
64,22:37
64,23:17
64,24:14
64,25:9
64,26:37
64,27:40
64,28:40
64,29:40
64,31:17
64,32:17
64,35:37
64,39:1
64,40:1
64,41:9
64,42:32
64,43:32
64,44:37
64,48:1
64,49:2
64,50:2
64,51:37
64,52:10
64,54:10
64,55:2
64,56:1
64,57:22
64,58:37
64,59:1
64,60:32
64,61:32
64,62:37
64,63:19
64,68:7
64,69:15
64,70:25
65,1:12
65,2:12
65,3:12
65,5:12
65,6:5
65,7:7
65,8:23
65,9:20
65,10:7
65,11:13
65,12:13
65,13:20
65,14:1
65,16:20
65,17:7
65,18:30
65,19:1
65,20:35
65,21:35
65,22:35
65,23:15
65,24:12
65,25:7
65,26:35
65,27:38
65,28:38
65,29:38
65,31:15
65,32:15
65,35:35
65,41:7
65,42:30
65,43:30
65,44:35
65,51:35
65,52:8
65,54:8
65,57:20
65,58:35
65,60:30
65,61:30
65,62:35
65,63:17
65,66:30
65,67:30
65,68:5
65,69:13
65,70:23
66,20:5
66,21:5
66,22:5
66,26:5
66,27:8
66,28:8
66,29:8
66,35:5
66,44:5
66,51:5
66,58:5
66,62:5
67,20:5
67,21:5
67,22:5
67,26:5
67,27:8
67,28:8
67,29:8
67,35:5
67,44:5
67,51:5
67,58:5
67,62:5
68,1:7
68,2:7
68,3:7
68,5:7
68,7:2
68,8:18
68,9:15
68,10:2
68,11:8
68,12:8
68,13:15
68,16:15
68,17:2
68,18:25
68,20:30
68,21:30
68,22:30
68,23:10
68,24:7
68,25:2
68,26:30
68,27:33
68,28:33
68,29:33
68,31:10
68,32:10
68,35:30
68,41:2
68,42:25
68,43:25
68,44:30
68,51:30
68,52:3
68,54:3
68,57:15
68,58:30
68,60:25
68,61:25
68,62:30
68,63:12
68,66:25
68,67:25
68,69:8
68,70:18
69,8:10
69,9:7
69,13:7
69,16:7
69,18:17
69,20:22
69,21:22
69,22:22
69,23:2
69,26:22
69,27:25
69,28:25
69,29:25
69,31:2
69,32:2
69,35:22
69,42:17
69,43:17
69,44:22
69,51:22
69,57:7
69,58:22
69,60:17
69,61:17
69,62:22
69,63:4
69,66:17
69,67:17
69,70:10
70,18:7
70,20:12
70,21:12
70,22:12
70,26:12
70,27:15
70,28:15
70,29:15
70,35:12
70,42:7
70,43:7
70,44:12
70,51:12
70,58:12
70,60:7
70,61:7
70,62:12
70,66:7
70,67:7

<end>

<optimal SALBP-1 value>
23


<rand seed>
467321153

